30, 900
1, 48, 35
2, 41, 39
3, 34, 41
4, 49, 45
5, 29, 43
6, 47, 36
7, 35, 37
8, 22, 25
9, 44, 40
10, 31, 42
11, 40, 34
12, 24, 21
13, 42, 27
14, 45, 47
15, 26, 20
16, 21, 31
17, 46, 49
18, 20, 28
19, 43, 44
20, 28, 33
21, 50, 26
22, 32, 22
23, 23, 48
24, 33, 32
25, 39, 46
26, 27, 50
27, 36, 23
28, 38, 29
29, 37, 30
30, 25, 38